u120_14
150 120 50 54
23 0
48 0
78 0
85 1
92 2
39 1
31 2
76 3
87 4
54 3
61 4
66 5
40 5
22 1
74 6
99 7
96 8
73 6
24 2
43 5
93 9
47 7
51 8
22 9
49 10
39 10
21 9
72 11
93 12
72 11
49 10
68 13
71 13
82 14
44 12
25 14
82 15
74 16
59 15
28 14
33 16
61 17
90 18
97 19
62 17
42 16
100 20
50 18
31 19
84 21
81 22
27 20
45 21
84 23
54 22
34 23
79 24
100 25
63 24
48 25
68 26
46 26
74 27
65 27
35 26
66 28
53 28
27 23
70 29
86 30
49 29
45 30
86 31
74 32
64 32
73 33
93 34
34 31
97 35
80 36
24 17
87 37
100 38
75 33
89 39
78 40
46 34
31 35
68 36
63 40
78 41
28 28
96 42
54 37
64 41
31 38
65 43
90 44
41 39
47 42
71 43
51 44
63 45
44 45
93 46
46 46
46 47
83 47
68 48
57 48
89 49
35 45
99 50
39 49
24 29
69 51
64 51
25 31
85 52
65 53